# Solution for model r3_t9_m9_9
# Finished Task: 8 / 9
# Makespan: 516.0, Total Distance: 266.0, Total Time: 0.3764
# R O S F
0 0 3 174.0 174.0
1 1 4 164.0 164.0
2 2 7 157.0 157.0
3 0 8 423.0 459.0
4 1 10 390.0 423.0
5 -1 -1 490.0 516.0
6 2 -1 488.0 516.0
7 2 9 310.0 347.0
8 0 -1 491.0 516.0
9 2 11 370.0 390.0
10 1 -1 459.0 490.0
11 2 6 433.0 465.0
